8 500000000000534
0 62500000000014 62500000000035 62500000000074 62500000000057 62500000000006 62500000000099 62500000000072
62500000000014 0 62500000000079 62500000000092 62500000000090 62500000000035 62500000000098 62500000000057
62500000000035 62500000000079 0 62500000000076 62500000000011 62500000000035 62500000000041 62500000000066
62500000000074 62500000000092 62500000000076 0 62500000000030 62500000000031 62500000000042 62500000000091
62500000000057 62500000000090 62500000000011 62500000000030 0 62500000000030 62500000000000 62500000000060
62500000000006 62500000000035 62500000000035 62500000000031 62500000000030 0 62500000000055 62500000000024
62500000000099 62500000000098 62500000000041 62500000000042 62500000000000 62500000000055 0 62500000000088
62500000000072 62500000000057 62500000000066 62500000000091 62500000000060 62500000000024 62500000000088 0
